
Gurobi 6.5.2 (linux64) logging started Tue Mar 21 10:55:38 2017


Gurobi 6.5.2 (linux64) logging started Tue Mar 21 10:55:38 2017

Optimize a model with 201 rows, 1585 columns and 3505 nonzeros
Coefficient statistics:
  Matrix range    [1e+00, 2e+00]
  Objective range [1e+00, 1e+02]
  Bounds range    [1e+00, 1e+00]
  RHS range       [1e+00, 1e+00]
Presolve removed 54 rows and 6 columns
Presolve time: 0.01s
Presolved: 147 rows, 1579 columns, 3249 nonzeros
Variable types: 0 continuous, 1579 integer (1579 binary)

Root relaxation: objective 1.177500e+03, 134 iterations, 0.00 seconds

    Nodes    |    Current Node    |     Objective Bounds      |     Work
 Expl Unexpl |  Obj  Depth IntInf | Incumbent    BestBd   Gap | It/Node Time

     0     0 1177.50000    0   24          - 1177.50000      -     -    0s
     0     0 1227.50000    0   12          - 1227.50000      -     -    0s
     0     0 1239.58333    0    8          - 1239.58333      -     -    0s
     0     0 1240.50000    0    8          - 1240.50000      -     -    0s
     0     0 1240.50000    0    8          - 1240.50000      -     -    0s
     0     2 1240.50000    0    8          - 1240.50000      -     -    0s
*  554   260              52    1264.0000000 1242.00000  1.74%   4.1    0s
*  783   328              22    1262.0000000 1243.00000  1.51%   4.1    0s
H 1137   493                    1261.0000000 1253.00000  0.63%   4.1    0s
H 1169   489                    1259.0000000 1254.00625  0.40%   4.5    1s
* 1217   469              49    1257.0000000 1255.01156  0.16%   5.2    1s

Cutting planes:
  Gomory: 20
  Cover: 21
  Clique: 4
  Flow cover: 3
  Zero half: 7
  Lazy constraints: 5

Explored 1223 nodes (6506 simplex iterations) in 1.46 seconds
Thread count was 4 (of 4 available processors)

Optimal solution found (tolerance 1.00e-04)
Best objective 1.257000000000e+03, best bound 1.257000000000e+03, gap 0.0%
